c CNF file corresponding to a (partial) station packing problem.
p cnf 6126 184
1 2 3 4 5 6 7 8 9 10 11 12 13 14 0
-1 -2 0
-1 -3 0
-1 -4 0
-1 -5 0
-1 -6 0
-1 -7 0
-1 -8 0
-1 -9 0
-1 -10 0
-1 -11 0
-1 -12 0
-1 -13 0
-1 -14 0
-2 -3 0
-2 -4 0
-2 -5 0
-2 -6 0
-2 -7 0
-2 -8 0
-2 -9 0
-2 -10 0
-2 -11 0
-2 -12 0
-2 -13 0
-2 -14 0
-3 -4 0
-3 -5 0
-3 -6 0
-3 -7 0
-3 -8 0
-3 -9 0
-3 -10 0
-3 -11 0
-3 -12 0
-3 -13 0
-3 -14 0
-4 -5 0
-4 -6 0
-4 -7 0
-4 -8 0
-4 -9 0
-4 -10 0
-4 -11 0
-4 -12 0
-4 -13 0
-4 -14 0
-5 -6 0
-5 -7 0
-5 -8 0
-5 -9 0
-5 -10 0
-5 -11 0
-5 -12 0
-5 -13 0
-5 -14 0
-6 -7 0
-6 -8 0
-6 -9 0
-6 -10 0
-6 -11 0
-6 -12 0
-6 -13 0
-6 -14 0
-7 -8 0
-7 -9 0
-7 -10 0
-7 -11 0
-7 -12 0
-7 -13 0
-7 -14 0
-8 -9 0
-8 -10 0
-8 -11 0
-8 -12 0
-8 -13 0
-8 -14 0
-9 -10 0
-9 -11 0
-9 -12 0
-9 -13 0
-9 -14 0
-10 -11 0
-10 -12 0
-10 -13 0
-10 -14 0
-11 -12 0
-11 -13 0
-11 -14 0
-12 -13 0
-12 -14 0
-13 -14 0
6113 6114 6115 6116 6117 6118 6119 6120 6121 6122 6123 6124 6125 6126 0
-6113 -6114 0
-6113 -6115 0
-6113 -6116 0
-6113 -6117 0
-6113 -6118 0
-6113 -6119 0
-6113 -6120 0
-6113 -6121 0
-6113 -6122 0
-6113 -6123 0
-6113 -6124 0
-6113 -6125 0
-6113 -6126 0
-6114 -6115 0
-6114 -6116 0
-6114 -6117 0
-6114 -6118 0
-6114 -6119 0
-6114 -6120 0
-6114 -6121 0
-6114 -6122 0
-6114 -6123 0
-6114 -6124 0
-6114 -6125 0
-6114 -6126 0
-6115 -6116 0
-6115 -6117 0
-6115 -6118 0
-6115 -6119 0
-6115 -6120 0
-6115 -6121 0
-6115 -6122 0
-6115 -6123 0
-6115 -6124 0
-6115 -6125 0
-6115 -6126 0
-6116 -6117 0
-6116 -6118 0
-6116 -6119 0
-6116 -6120 0
-6116 -6121 0
-6116 -6122 0
-6116 -6123 0
-6116 -6124 0
-6116 -6125 0
-6116 -6126 0
-6117 -6118 0
-6117 -6119 0
-6117 -6120 0
-6117 -6121 0
-6117 -6122 0
-6117 -6123 0
-6117 -6124 0
-6117 -6125 0
-6117 -6126 0
-6118 -6119 0
-6118 -6120 0
-6118 -6121 0
-6118 -6122 0
-6118 -6123 0
-6118 -6124 0
-6118 -6125 0
-6118 -6126 0
-6119 -6120 0
-6119 -6121 0
-6119 -6122 0
-6119 -6123 0
-6119 -6124 0
-6119 -6125 0
-6119 -6126 0
-6120 -6121 0
-6120 -6122 0
-6120 -6123 0
-6120 -6124 0
-6120 -6125 0
-6120 -6126 0
-6121 -6122 0
-6121 -6123 0
-6121 -6124 0
-6121 -6125 0
-6121 -6126 0
-6122 -6123 0
-6122 -6124 0
-6122 -6125 0
-6122 -6126 0
-6123 -6124 0
-6123 -6125 0
-6123 -6126 0
-6124 -6125 0
-6124 -6126 0
-6125 -6126 0
